(set-logic QF_S)
(declare-fun var0 () String)
(assert (RegexIn var0 (RegexConcat (RegexPlus (RegexPlus (Str2Reg "00"))) (RegexConcat (RegexUnion (RegexStar (Str2Reg "1")) (RegexStar (Str2Reg "222"))) (RegexConcat (RegexStar (RegexStar (Str2Reg "3"))) (RegexConcat (RegexStar (RegexUnion (Str2Reg "444") (Str2Reg "55"))) (RegexConcat (RegexUnion (RegexStar (Str2Reg "6")) (RegexStar (Str2Reg "7"))) (RegexConcat (RegexStar (RegexStar (Str2Reg "888"))) (RegexConcat (RegexPlus (RegexUnion (Str2Reg "99") (Str2Reg "aaa"))) (RegexConcat (RegexUnion (RegexUnion (Str2Reg "b") (Str2Reg "ccc")) (RegexUnion (Str2Reg "dd") (Str2Reg "ee"))) (RegexConcat (RegexUnion (RegexUnion (Str2Reg "ff") (Str2Reg "g")) (RegexUnion (Str2Reg "hh") (Str2Reg "i"))) (RegexConcat (RegexUnion (RegexPlus (Str2Reg "jj")) (RegexPlus (Str2Reg "kk"))) (RegexConcat (RegexPlus (RegexUnion (Str2Reg "ll") (Str2Reg "m"))) (RegexConcat (RegexStar (RegexPlus (Str2Reg "n"))) (RegexConcat (RegexStar (RegexPlus (Str2Reg "ooo"))) (RegexConcat (RegexUnion (RegexStar (Str2Reg "p")) (RegexStar (Str2Reg "qq"))) (RegexConcat (RegexUnion (RegexPlus (Str2Reg "rrr")) (RegexPlus (Str2Reg "ss"))) (RegexConcat (RegexStar (RegexPlus (Str2Reg "ttt"))) (RegexConcat (RegexPlus (RegexStar (Str2Reg "u"))) (RegexConcat (RegexUnion (RegexStar (Str2Reg "vv")) (RegexStar (Str2Reg "www"))) (RegexConcat (RegexPlus (RegexPlus (Str2Reg "xx"))) (RegexConcat (RegexUnion (RegexUnion (Str2Reg "yyy") (Str2Reg "zzz")) (RegexUnion (Str2Reg "A") (Str2Reg "BB"))) (RegexConcat (RegexStar (RegexStar (Str2Reg "CC"))) (RegexConcat (RegexStar (RegexStar (Str2Reg "DDD"))) (RegexPlus (RegexUnion (Str2Reg "EEE") (Str2Reg "FF")))))))))))))))))))))))))))
(check-sat)